n=12;
m=62;
ciudades=[|4, 11
|0, 5
|7, 11
|10, 10
|6, 1
|10, 9
|1, 3
|4, 9
|11, 6
|3, 11
|4, 6
|11, 12
|9, 3
|0, 4
|4, 0
|2, 9
|10, 3
|8, 10
|6, 9
|11, 5
|5, 9
|11, 1
|6, 3
|7, 6
|1, 0
|12, 6
|1, 9
|5, 4
|11, 10
|3, 4
|11, 3
|5, 2
|8, 12
|2, 12
|7, 2
|7, 8
|11, 2
|4, 7
|11, 8
|4, 2
|4, 12
|3, 10
|3, 9
|8, 4
|2, 2
|10, 8
|5, 7
|4, 4
|2, 8
|3, 0
|9, 1
|0, 0
|12, 7
|8, 11
|6, 7
|1, 4
|2, 5
|10, 4
|1, 2
|0, 6
|1, 12
|5, 11|];